62      4       
19      31      14      13      
0       0       0       0       0       3       2       3       4       
1       0       0       7       0       3       5       20      36      
9       5       0       0       0       3       6       26      40      
5       10      0       0       0       1       9       
1       0       0       0       8       2       7       10      
8       10      0       0       0       3       8       16      23      
4       0       0       5       0       1       22      
5       0       0       0       8       3       14      19      29      
10      0       0       3       0       2       11      52      
10      0       0       0       9       1       60      
4       0       0       9       0       3       12      15      55      
6       9       0       0       0       3       13      35      37      
1       10      0       0       0       1       43      
10      4       0       0       0       3       20      24      44      
7       4       0       0       0       1       17      
3       0       0       9       0       1       38      
1       0       0       0       9       3       18      27      33      
6       0       0       0       10      2       26      41      
9       0       0       4       0       1       21      
3       0       8       0       0       3       25      30      52      
2       0       6       0       0       2       28      54      
10      0       6       0       0       1       51      
3       0       0       0       6       2       44      49      
8       8       0       0       0       1       47      
5       0       3       0       0       1       46      
4       0       10      0       0       1       39      
4       0       0       0       6       1       37      
7       0       0       8       0       1       33      
10      0       8       0       0       2       34      36      
2       0       8       0       0       2       31      38      
1       0       0       0       4       1       32      
9       0       7       0       0       1       42      
8       0       6       0       0       1       48      
10      0       10      0       0       1       48      
5       0       0       2       0       2       39      41      
9       0       10      0       0       2       43      50      
2       0       0       6       0       1       53      
2       0       0       8       0       1       53      
9       0       8       0       0       2       45      58      
9       0       0       0       1       1       53      
1       0       0       10      0       1       43      
10      3       0       0       0       1       45      
7       1       0       0       0       1       48      
8       0       4       0       0       1       56      
10      0       9       0       0       1       46      
2       0       10      0       0       2       51      59      
3       2       0       0       0       1       57      
6       0       1       0       0       1       61      
7       9       0       0       0       1       61      
4       7       0       0       0       1       51      
6       4       0       0       0       1       60      
5       5       0       0       0       1       55      
9       6       0       0       0       1       59      
2       0       0       0       2       2       58      61      
8       0       10      0       0       1       57      
4       0       0       8       0       1       58      
4       0       3       0       0       1       59      
9       0       8       0       0       1       60      
6       0       0       5       0       1       62      
7       2       0       0       0       1       62      
3       3       0       0       0       1       62      
0       0       0       0       0       0       